(declare-const X String)
; Host\u{3A}\s+www\u{2E}webfringe\u{2E}com\d+Version\d\u{2E}lSpywww\u{2E}lookquick\u{2E}comSubject\u{3A}\u{3a}\u{29}\r\n
(assert (str.in_re X (re.++ (str.to_re "Host:") (re.+ (re.union (str.to_re " ") (str.to_re "\u{9}") (str.to_re "\u{a}") (str.to_re "\u{c}") (str.to_re "\u{d}"))) (str.to_re "www.webfringe.com") (re.+ (re.range "0" "9")) (str.to_re "Version") (re.range "0" "9") (str.to_re ".lSpywww.lookquick.comSubject::)\u{d}\u{a}\u{13}\u{a}"))))
; User-Agent\u{3a}etbuviaebe\u{2f}eqv\.bvv
(assert (str.in_re X (str.to_re "User-Agent:etbuviaebe/eqv.bvv\u{a}")))
; /filename=[^\n]*\u{2e}nab/i
(assert (str.in_re X (re.++ (str.to_re "/filename=") (re.* (re.comp (str.to_re "\u{a}"))) (str.to_re ".nab/i\u{a}"))))
; /filename=[^\n]*\u{2e}por/i
(assert (not (str.in_re X (re.++ (str.to_re "/filename=") (re.* (re.comp (str.to_re "\u{a}"))) (str.to_re ".por/i\u{a}")))))
; ^[a-zA-Z]+(\.[a-zA-Z]+)+$
(assert (str.in_re X (re.++ (re.+ (re.union (re.range "a" "z") (re.range "A" "Z"))) (re.+ (re.++ (str.to_re ".") (re.+ (re.union (re.range "a" "z") (re.range "A" "Z"))))) (str.to_re "\u{a}"))))
(check-sat)
